209807.0
2119
1 4 5 6 9 10 20 22 24 26 27 28 30 31 34 36 43 45 47 49 50 52 54 55 57 58 61 65 67 69 70 73 75 76 77 79 81 84 87 88 91 92 96 97 100 101 104 106 107 109 111 112 114 116 117 120 121 123 126 130 131 132 134 135 137 139 143 144 145 146 154 155 156 157 162 163 164 165 166 167 168 169 170 171 172 173 175 177 182 187 188 191 192 193 195 197 